(set-info :smt-lib-version 2.6)
(set-logic QF_NRA)
(set-info :source |
Generated by: Ali K. Uncu, Matthew England, and James H. Davenport
Generated on: 2022-01-06

Generator: SUMCracker-ProveInequality function by Manuel Kauers ("https://www3.risc.jku.at/research/combinat/software/ergosum/RISC/SumCracker.html")
Translated to SMT-Lib by Maple SMTLIB package.

Application: CAD calls of SUMCracker-ProveInequality to prove Amer Math Monthly Problem 10347 in
S. Gerhold and M. Kauers, A Procedure for Proving Special Function Inequalities Involving a Discrete Parameter.
ISSAC '05: Proceedings of the 2005 international symposium on Symbolic and algebraic computationJuly 2005 Pages 156-162.
(https://dl.acm.org/doi/10.1145/1073884.1073907)

All denominators in the original CAD call got cleared by introducing disjunctions with sign conditions:
a/b == c/d --> a d==b c && b<>0 && d<>0
a/b >= c  --> a >=b c && b >0  or ( a <= b c && b < 0)
|)
(set-info :license "https://creativecommons.org/licenses/by/4.0/")
(set-info :status unsat)
(set-info :category "industrial")

(declare-fun V1 () Real)
(declare-fun V2 () Real)
(assert (and (<= 1 V1) (<= 0 V1) (<= 0 (+ 1 V1)) (<= (+ (- 3) (* V1 4)) (* (* V2 V2) 4)) (or (and (< 0 (* V2 V2)) (<= (* (+ 1 (* V1 4)) (* V2 V2)) (* (* (+ V1 V2) (+ V1 V2)) 4))) (and (< (* V2 V2) 0) (<= (* (* (+ V1 V2) (+ V1 V2)) 4) (* (+ 1 (* V1 4)) (* V2 V2))))) (or (and (< 0 (* (+ V1 V2) (+ V1 V2))) (< (* (* (+ (* V2 2) (* V1 (+ 1 V2))) (+ (* V2 2) (* V1 (+ 1 V2)))) 4) (* (+ 5 (* V1 4)) (* (+ V1 V2) (+ V1 V2))))) (and (< (* (+ V1 V2) (+ V1 V2)) 0) (< (* (+ 5 (* V1 4)) (* (+ V1 V2) (+ V1 V2))) (* (* (+ (* V2 2) (* V1 (+ 1 V2))) (+ (* V2 2) (* V1 (+ 1 V2)))) 4))))))
(check-sat)
(exit)




















